;test regex sed -i -E 's/([0-9]{2})([0-9]*)\.([0-9]+)/\1.\2\3/g' large_file.geojson
(declare-const X String)
(assert (str.in_re X (re.++ (str.to_re "s") (re.++ (str.to_re "e") (re.++ (str.to_re "d") (re.++ (str.to_re " ") (re.++ (str.to_re "-") (re.++ (str.to_re "i") (re.++ (str.to_re " ") (re.++ (str.to_re "-") (re.++ (str.to_re "E") (re.++ (str.to_re " ") (re.++ (str.to_re "\u{27}") (re.++ (str.to_re "s") (re.++ (str.to_re "/") (re.++ ((_ re.loop 2 2) (re.range "0" "9")) (re.++ (re.* (re.range "0" "9")) (re.++ (str.to_re ".") (re.++ (re.+ (re.range "0" "9")) (re.++ (str.to_re "/") (re.++ (_ re.reference 1) (re.++ (re.diff re.allchar (str.to_re "\n")) (re.++ (_ re.reference 2) (re.++ (_ re.reference 3) (re.++ (str.to_re "/") (re.++ (str.to_re "g") (re.++ (str.to_re "\u{27}") (re.++ (str.to_re " ") (re.++ (str.to_re "l") (re.++ (str.to_re "a") (re.++ (str.to_re "r") (re.++ (str.to_re "g") (re.++ (str.to_re "e") (re.++ (str.to_re "_") (re.++ (str.to_re "f") (re.++ (str.to_re "i") (re.++ (str.to_re "l") (re.++ (str.to_re "e") (re.++ (re.diff re.allchar (str.to_re "\n")) (re.++ (str.to_re "g") (re.++ (str.to_re "e") (re.++ (str.to_re "o") (re.++ (str.to_re "j") (re.++ (str.to_re "s") (re.++ (str.to_re "o") (str.to_re "n"))))))))))))))))))))))))))))))))))))))))))))))
; sanitize danger characters:  < > ' " &
(assert (not (str.in_re X (re.++ re.all (re.union (str.to_re "\u{3c}") (str.to_re "\u{3e}") (str.to_re "\u{27}") (str.to_re "\u{22}") (str.to_re "\u{26}")) re.all))))
(assert (< 9 (str.len X)))
(check-sat)
(get-model)